
(set-logic ALL) 

(declare-datatype MyList ((Nil) (Cons (head Real) (tail MyList)) )) 
(declare-fun l0 () MyList) 
(declare-fun l1 () MyList) 
(declare-fun l2 () MyList) 
(declare-fun l3 () MyList) 
(declare-fun i0 () Real) 
(declare-fun i1 () Real) 
(assert (or (is-Nil l1) (is-Nil Nil)) )
(assert (= l0 Nil) )
(assert (and (= l0 Nil) (= l1 Nil) (= l2 Nil)) )
(assert (is-Nil l1) )
(assert (is-Nil Nil) )
(assert (or (is-Cons Nil) (= l2 Nil) (is-Cons Nil)) )
(assert (or (= l0 Nil) (is-Nil Nil) (= l2 Nil) (= l0 Nil)) )
(assert (or (= l2 l3) (= l3 Nil) (= l1 l2)) )
(check-sat)
